p cnf 931 1244
c ind 633 634 635 648 655 681 742 743 756 763 0
c ind 767 769 772 788 790 793 805 806 825 827 0
c ind 831 842 843 847 848 849 853 855 626 741 0
c ind 656 668 627 628 740 631 632 739 916 898 0
c ind 907 921 902 912 929 915 897 906 920 901 0
c ind 911 928 884 885 914 896 905 919 900 910 0
c ind 883 927 913 895 904 918 882 899 909 926 0
c ind 890 894 924 880 881 879 874 892 878 922 0
c ind 877 876 875 893 923 903 917 908 925 891 0
c ind 872 873 629 630 871 866 870 869 868 867 0
c ind 887 864 865 857 858 863 888 862 861 860 0
c ind 859 837 838 836 835 834 856 846 844 845 0
c ind 833 832 854 841 830 852 850 851 839 840 0
c ind 829 828 821 889 886 826 824 822 823 820 0
c ind 813 812 819 818 817 816 815 814 811 810 0
c ind 809 808 807 625 800 799 797 798 796 795 0
c ind 801 802 794 792 803 791 804 789 787 785 0
c ind 786 784 783 782 781 780 779 778 776 777 0
c ind 775 774 773 771 770 768 766 764 765 746 0
c ind 762 757 761 758 759 753 760 755 751 752 0
c ind 754 750 745 749 747 748 744 738 731 723 0
c ind 737 736 735 638 734 717 716 715 733 714 0
c ind 732 713 712 711 730 729 728 727 726 725 0
c ind 724 722 721 720 719 718 710 703 695 709 0
c ind 708 707 706 689 688 687 705 686 704 685 0
c ind 684 683 702 701 700 699 698 697 696 694 0
c ind 693 692 691 690 682 680 678 679 669 670 0
c ind 677 676 675 674 673 671 672 665 664 666 0
c ind 667 663 662 661 660 658 659 657 654 653 0
c ind 649 650 651 652 645 647 644 643 646 637 0
c ind 642 636 641 639 640 1 0
c ret 585 586 587 588 589 590 591 592 593 594 0
c ret 595 291 596 597 598 297 298 299 300 599 0
c ret 301 600 302 303 304 601 305 602 306 307 0
c ret 308 309 603 310 311 312 313 314 315 604 0
c ret 316 605 317 606 607 318 319 320 321 322 0
c ret 323 324 325 608 326 609 327 328 610 611 0
c ret 329 330 331 332 333 612 292 334 335 336 0
c ret 337 613 338 614 339 340 615 616 341 342 0
c ret 343 617 618 344 345 346 619 347 348 349 0
c ret 350 351 352 353 620 354 355 356 357 358 0
c ret 359 621 360 622 361 362 623 363 624 364 0
c ret 365 366 367 368 369 370 371 372 373 374 0
c ret 293 375 376 377 378 379 380 381 382 383 0
c ret 384 385 386 387 388 389 390 391 392 393 0
c ret 394 395 396 397 398 399 400 401 402 403 0
c ret 404 405 406 407 408 409 410 411 412 413 0
c ret 414 294 415 416 417 418 419 420 421 422 0
c ret 423 424 425 426 427 428 429 430 431 432 0
c ret 433 434 435 436 437 438 439 440 441 442 0
c ret 443 444 445 446 447 448 449 450 451 452 0
c ret 453 454 455 456 457 458 459 460 461 462 0
c ret 463 464 465 466 467 468 469 470 471 472 0
c ret 473 474 475 476 477 478 479 480 481 482 0
c ret 483 484 485 295 486 487 488 489 490 491 0
c ret 492 493 494 495 496 497 498 499 500 501 0
c ret 502 503 504 505 506 507 508 509 510 511 0
c ret 512 513 514 515 516 517 518 519 520 521 0
c ret 522 523 524 296 525 526 527 528 529 530 0
c ret 531 532 533 534 535 536 537 538 539 540 0
c ret 541 542 543 544 545 546 547 548 549 550 0
c ret 551 552 553 554 555 556 557 558 559 560 0
c ret 561 562 563 564 565 566 567 568 569 570 0
c ret 571 572 573 574 575 576 577 578 579 580 0
c ret 581 582 583 584 0
2 4 5 -287 0
2 3 5 -287 0
-2 287 0
-2 -5 0
-2 -3 -4 0
3 523 0
3 -524 530 0
3 524 531 0
-3 -523 524 -531 0
-3 -523 -524 -530 0
4 523 0
4 -524 -530 0
4 524 -531 0
-4 -523 524 531 0
-4 -523 -524 530 0
5 6 54 99 -120 0
5 -6 -54 99 -120 0
-5 -99 0
-5 6 -54 0
-5 120 0
-5 -6 54 0
6 7 -13 0
6 7 50 0
-6 -7 0
-6 13 -50 0
7 -8 -9 0
7 -9 -12 0
-7 9 0
-7 8 12 0
8 857 0
8 -858 -864 0
8 858 -865 0
-8 -857 858 865 0
-8 -857 -858 864 0
9 -10 -11 0
-8 9 -11 0
-9 11 0
8 -9 10 0
-8 10 0
10 866 -873 0
10 -866 -872 0
8 -10 -866 872 0
8 -10 866 873 0
11 857 0
11 -858 864 0
11 858 865 0
-11 -857 858 -865 0
-11 -857 -858 -864 0
-8 12 0
12 -866 872 0
12 866 873 0
8 -12 -866 -872 0
8 -12 866 -873 0
13 -14 -49 -929 0
13 14 -15 -49 0
-13 49 0
-13 -14 929 0
-13 14 15 0
14 852 -854 0
-14 -852 0
-14 854 0
15 -16 -928 0
15 16 -17 0
-15 -16 928 0
-15 16 17 0
16 824 -826 0
-16 -824 0
-16 826 0
17 18 41 48 0
17 18 41 -44 0
-17 -18 0
-17 -41 0
-17 44 -48 0
18 -39 625 -800 0
18 19 625 800 0
-18 -625 0
-18 39 -800 0
-18 -19 800 0
19 -20 -925 0
-19 925 0
-19 20 0
20 -21 35 0
-20 21 0
-20 -35 0
21 -28 29 0
21 22 29 -690 0
-21 -29 0
-21 -22 28 0
-21 28 690 0
22 23 0
22 26 -689 0
22 26 695 0
-22 -23 -26 0
-22 -23 689 -695 0
23 -24 25 -683 -690 0
-23 24 0
-23 -25 0
-23 683 0
-23 690 0
24 684 685 686 0
-24 -684 0
-24 -686 0
-24 -685 0
25 687 -688 0
-25 -687 0
-25 688 0
26 27 689 695 -696 0
-26 -689 0
-26 -27 0
-26 696 0
-26 -695 0
27 703 704 0
-27 -703 0
-27 -704 0
24 28 -683 0
25 28 -683 -689 0
-28 683 0
-24 -28 689 0
-24 -25 -28 0
29 31 34 0
29 31 -33 0
29 30 31 0
-29 -31 0
-29 -30 33 -34 0
30 712 713 714 0
-30 -712 0
-30 -714 0
-30 -713 0
30 31 -711 0
31 32 -711 -717 0
-31 711 0
-30 -31 717 0
-30 -31 -32 0
32 715 -716 0
-32 -715 0
-32 716 0
33 723 724 0
33 723 731 732 0
-33 -723 0
-33 -724 -731 0
-33 -724 -732 0
32 34 -711 717 -718 0
-34 718 0
-32 -34 0
-34 711 0
-34 -717 0
35 -36 -657 0
35 -38 -657 0
35 -37 -657 0
-35 657 0
-35 36 37 38 0
36 -658 659 660 0
-36 658 0
-36 -660 0
-36 -659 0
37 663 666 667 0
-37 -663 0
-37 -667 0
-37 -666 0
38 -663 664 665 0
-38 663 0
-38 -665 0
-38 -664 0
39 -40 926 0
19 39 40 0
-39 -40 -926 0
-19 -39 40 0
40 766 -768 0
-40 -766 0
-40 768 0
41 -42 -43 -810 0
41 -42 -43 -811 0
-41 43 0
-41 42 0
-41 810 811 0
42 813 814 815 816 0
-42 -816 0
-42 -815 0
-42 -813 0
-42 -814 0
43 -807 -808 -809 812 0
-43 809 0
-43 -812 0
-43 807 0
-43 808 0
39 44 -45 0
-39 -44 0
-44 45 0
45 46 47 0
-45 -46 0
-45 -47 0
46 779 780 781 0
-46 -779 0
-46 -781 0
-46 -780 0
47 787 -789 0
-47 -787 0
-47 789 0
47 48 -625 0
48 -625 927 0
-48 625 0
-47 -48 -927 0
49 -821 828 0
-49 821 0
-49 -828 0
50 51 -821 0
15 17 50 0
17 50 51 0
15 50 -821 0
-17 -50 821 0
-15 -50 -51 0
51 53 -821 -828 0
51 52 -821 -828 0
-51 821 0
-51 828 0
-51 -52 -53 0
52 832 -833 -834 835 0
-52 -832 0
-52 -835 0
-52 834 0
-52 833 0
53 -829 830 0
-53 829 0
-53 -830 0
54 -55 -56 0
54 -55 95 0
-54 55 0
-54 56 -95 0
4 55 -552 0
3 55 -552 0
-55 552 0
-3 -4 -55 0
56 -57 -94 -624 0
56 57 -58 -94 0
-56 94 0
-56 -57 624 0
-56 57 58 0
57 518 -520 0
-57 -518 0
-57 520 0
58 -59 -623 0
58 59 -60 0
-58 -59 623 0
-58 59 60 0
59 490 -492 0
-59 -490 0
-59 492 0
60 61 86 93 0
60 61 86 -89 0
-60 -61 0
-60 -86 0
-60 89 -93 0
61 -84 291 -466 0
61 62 291 466 0
-61 -291 0
-61 84 -466 0
-61 -62 466 0
62 -63 -620 0
-62 620 0
-62 63 0
63 64 -68 0
-63 -64 0
-63 68 0
64 -65 -323 0
64 -67 -323 0
64 -66 -323 0
-64 323 0
-64 65 66 67 0
65 -324 325 326 0
-65 324 0
-65 -326 0
-65 -325 0
66 329 332 333 0
-66 -329 0
-66 -333 0
-66 -332 0
67 -329 330 331 0
-67 329 0
-67 -331 0
-67 -330 0
68 69 -76 0
68 69 79 -356 0
-68 -69 0
-68 76 -79 0
-68 76 356 0
69 -70 73 0
69 73 377 0
-69 -73 0
-69 70 -377 0
70 -72 380 383 0
70 -71 -72 380 0
-70 -380 0
-70 72 0
-70 71 -383 0
71 381 -382 0
-71 -381 0
-71 382 0
72 378 379 0
-72 -378 0
-72 -379 0
71 -72 73 74 -75 0
72 -73 0
-73 -74 0
-71 -73 0
-73 75 0
74 389 390 0
74 389 397 398 0
-74 -389 0
-74 -390 -397 0
-74 -390 -398 0
75 -377 380 383 -384 0
-75 384 0
-75 -383 0
-75 377 0
-75 -380 0
76 77 -349 0
76 78 -349 -355 0
-76 349 0
-76 -77 355 0
-76 -77 -78 0
77 350 351 352 0
-77 -350 0
-77 -352 0
-77 -351 0
78 353 -354 0
-78 -353 0
-78 354 0
79 80 82 0
-79 -80 0
-79 -82 0
80 -81 355 -361 0
-80 81 0
-80 361 0
-80 -355 0
-77 78 81 -349 -356 0
77 -81 0
-78 -81 0
-81 349 0
-81 356 0
-81 82 -83 -369 0
-81 82 -83 -370 0
-82 83 0
81 -82 0
-82 369 370 0
83 355 361 -362 0
-83 362 0
-83 -361 0
-83 -355 0
84 -85 621 0
62 84 85 0
-84 -85 -621 0
-62 -84 85 0
85 432 -434 0
-85 -432 0
-85 434 0
86 -87 -88 -476 0
86 -87 -88 -477 0
-86 88 0
-86 87 0
-86 476 477 0
87 479 480 481 482 0
-87 -482 0
-87 -481 0
-87 -479 0
-87 -480 0
88 -473 -474 -475 478 0
-88 475 0
-88 -478 0
-88 473 0
-88 474 0
84 89 -90 0
-84 -89 0
-89 90 0
90 91 92 0
-90 -91 0
-90 -92 0
91 445 446 447 0
-91 -445 0
-91 -447 0
-91 -446 0
92 453 -455 0
-92 -453 0
-92 455 0
92 93 -291 0
93 -291 622 0
-93 291 0
-92 -93 -622 0
94 -487 494 0
-94 487 0
-94 -494 0
95 96 -487 0
58 60 95 0
60 95 96 0
58 95 -487 0
-60 -95 487 0
-58 -95 -96 0
96 98 -487 -494 0
96 97 -487 -494 0
-96 487 0
-96 494 0
-96 -97 -98 0
97 -495 496 0
-97 495 0
-97 -496 0
98 498 -499 -500 501 0
-98 -498 0
-98 -501 0
-98 500 0
-98 499 0
99 100 -110 0
-99 -100 0
-99 110 0
7 100 -101 0
7 100 109 0
-7 -100 0
-100 101 -109 0
14 -49 101 -102 0
-14 -49 101 -907 0
49 -101 0
14 -101 102 0
-14 -101 907 0
-16 102 -906 0
16 102 -103 0
-16 -102 906 0
16 -102 103 0
41 103 104 108 0
41 103 104 -107 0
-41 -103 0
-103 -104 0
-103 107 -108 0
104 -106 625 -800 0
104 105 625 800 0
-104 -625 0
-104 106 -800 0
-104 -105 800 0
-20 105 -903 0
-105 903 0
20 -105 0
-40 106 904 0
40 105 106 0
-40 -106 -904 0
40 -105 -106 0
-45 106 107 0
45 -107 0
-106 -107 0
47 108 -625 0
108 -625 905 0
-108 625 0
-47 -108 -905 0
102 109 -821 0
51 103 109 0
102 103 109 0
51 109 -821 0
-51 -102 -109 0
-103 -109 821 0
-55 110 -111 0
-55 110 119 0
55 -110 0
-110 111 -119 0
57 -94 111 -112 0
-57 -94 111 -602 0
94 -111 0
57 -111 112 0
-57 -111 602 0
-59 112 -601 0
59 112 -113 0
-59 -112 601 0
59 -112 113 0
86 113 114 118 0
86 113 114 -117 0
-86 -113 0
-113 -114 0
-113 117 -118 0
114 -116 291 -466 0
114 115 291 466 0
-114 -291 0
-114 116 -466 0
-114 -115 466 0
-63 115 -598 0
-115 598 0
63 -115 0
-85 116 599 0
85 115 116 0
-85 -116 -599 0
85 -115 -116 0
-90 116 117 0
90 -117 0
-116 -117 0
92 118 -291 0
118 -291 600 0
-118 291 0
-92 -118 -600 0
112 119 -487 0
96 113 119 0
112 113 119 0
96 119 -487 0
-96 -112 -119 0
-113 -119 487 0
100 120 -121 -160 0
-110 120 -121 -160 0
-120 160 0
-120 121 0
-100 110 -120 0
121 122 -142 -151 0
121 -132 142 151 0
121 122 142 151 0
121 -132 -142 -151 0
-121 142 -151 0
-121 -142 151 0
-121 -122 132 0
7 122 -123 0
7 122 131 0
-7 -122 0
-122 123 -131 0
14 -49 123 -124 0
-14 -49 123 -898 0
49 -123 0
14 -123 124 0
-14 -123 898 0
-16 124 -897 0
16 124 -125 0
-16 -124 897 0
16 -124 125 0
41 125 126 130 0
41 125 126 -129 0
-41 -125 0
-125 -126 0
-125 129 -130 0
126 127 -625 896 0
47 126 127 -625 0
-126 625 0
-126 -127 0
-47 -126 -896 0
-45 127 128 0
45 -127 0
-127 -128 0
20 40 128 0
-40 128 895 0
40 128 630 0
-40 -128 -895 0
-20 40 -128 -630 0
-20 40 129 -630 0
-20 129 -630 800 0
20 -129 0
-129 630 0
-40 -129 -800 0
130 625 895 0
130 625 800 0
40 130 625 0
-130 -625 0
-40 -130 -800 -895 0
124 131 -821 0
51 125 131 0
124 125 131 0
51 131 -821 0
-51 -124 -131 0
-125 -131 821 0
-55 132 -133 0
-55 132 141 0
55 -132 0
-132 133 -141 0
57 -94 133 -134 0
-57 -94 133 -593 0
94 -133 0
57 -133 134 0
-57 -133 593 0
-59 134 -592 0
59 134 -135 0
-59 -134 592 0
59 -134 135 0
86 135 136 140 0
86 135 136 -139 0
-86 -135 0
-135 -136 0
-135 139 -140 0
136 137 -291 591 0
92 136 137 -291 0
-136 291 0
-136 -137 0
-92 -136 -591 0
-90 137 138 0
90 -137 0
-137 -138 0
63 85 138 0
-85 138 590 0
85 138 296 0
-85 -138 -590 0
-63 85 -138 -296 0
-63 85 139 -296 0
-63 139 -296 466 0
63 -139 0
-139 296 0
-85 -139 -466 0
140 291 590 0
140 291 466 0
85 140 291 0
-140 -291 0
-85 -140 -466 -590 0
134 141 -487 0
96 135 141 0
134 135 141 0
96 141 -487 0
-96 -134 -141 0
-135 -141 487 0
7 142 -143 0
7 142 150 0
-7 -142 0
-142 143 -150 0
14 -49 143 -144 0
-14 -49 143 -902 0
49 -143 0
14 -143 144 0
-14 -143 902 0
-16 144 -901 0
16 144 -145 0
-16 -144 901 0
16 -144 145 0
41 145 146 149 0
41 145 146 -148 0
-41 -145 0
-145 -146 0
-145 148 -149 0
146 -147 625 -800 0
20 146 625 800 0
-146 -625 0
-146 147 -800 0
-20 -146 800 0
-40 147 899 0
20 40 147 0
-40 -147 -899 0
-20 40 -147 0
-45 147 148 0
45 -148 0
-147 -148 0
47 149 -625 0
149 -625 900 0
-149 625 0
-47 -149 -900 0
144 150 -821 0
51 145 150 0
144 145 150 0
51 150 -821 0
-51 -144 -150 0
-145 -150 821 0
-55 151 -152 0
-55 151 159 0
55 -151 0
-151 152 -159 0
57 -94 152 -153 0
-57 -94 152 -597 0
94 -152 0
57 -152 153 0
-57 -152 597 0
-59 153 -596 0
59 153 -154 0
-59 -153 596 0
59 -153 154 0
86 154 155 158 0
86 154 155 -157 0
-86 -154 0
-154 -155 0
-154 157 -158 0
155 -156 291 -466 0
63 155 291 466 0
-155 -291 0
-155 156 -466 0
-63 -155 466 0
-85 156 594 0
63 85 156 0
-85 -156 -594 0
-63 85 -156 0
-90 156 157 0
90 -157 0
-156 -157 0
92 158 -291 0
158 -291 595 0
-158 291 0
-92 -158 -595 0
153 159 -487 0
96 154 159 0
153 154 159 0
96 159 -487 0
-96 -153 -159 0
-154 -159 487 0
-122 160 -161 -209 0
132 160 -161 -209 0
-160 209 0
-160 161 0
122 -132 -160 0
161 -162 -177 200 0
161 162 177 -191 0
161 162 177 200 0
161 -162 -177 -191 0
-161 162 -177 0
-161 -162 177 0
-161 191 -200 0
7 162 -175 0
7 162 -174 0
7 162 -163 0
-7 -162 0
-162 163 174 175 0
163 166 -167 0
-45 163 164 -167 0
-163 167 0
-163 -164 -166 0
45 -163 -166 0
-40 164 918 0
40 164 165 0
-40 -164 -918 0
40 -164 -165 0
-20 165 -917 0
-165 917 0
20 -165 0
47 166 -625 0
166 -625 919 0
-166 625 0
-47 -166 -919 0
167 -168 173 0
-167 168 0
-167 -173 0
41 168 169 0
-41 -168 0
-168 -169 0
-16 169 -821 0
169 -170 -821 0
-169 821 0
16 -169 170 0
-14 170 171 828 0
-53 170 171 -828 0
-170 -171 0
53 -170 -828 0
14 -170 828 0
52 171 -172 0
-52 -171 0
-171 172 0
172 -821 -828 -829 830 0
-172 829 0
-172 -830 0
-172 821 0
-172 828 0
-164 173 625 -800 0
165 173 625 800 0
-173 -625 0
164 -173 -800 0
-165 -173 800 0
-14 -49 174 -921 0
-174 921 0
14 -174 0
49 -174 0
-16 175 -176 -920 0
-175 920 0
16 -175 0
-175 176 0
170 176 -821 0
-176 821 0
-170 -176 0
-55 177 -178 0
-55 177 -189 0
-55 177 -188 0
55 -177 0
-177 178 188 189 0
178 181 -182 0
-90 178 179 -182 0
-178 182 0
-178 -179 -181 0
90 -178 -181 0
-85 179 613 0
85 179 180 0
-85 -179 -613 0
85 -179 -180 0
-63 180 -612 0
-180 612 0
63 -180 0
92 181 -291 0
181 -291 614 0
-181 291 0
-92 -181 -614 0
182 -183 187 0
-182 183 0
-182 -187 0
86 183 184 0
-86 -183 0
-183 -184 0
-59 184 -487 0
184 -185 -487 0
-184 487 0
59 -184 185 0
-57 185 186 494 0
-97 185 186 -494 0
-185 -186 0
97 -185 -494 0
57 -185 494 0
-97 98 186 -487 -494 0
97 -186 0
-98 -186 0
-186 487 0
-186 494 0
-179 187 291 -466 0
180 187 291 466 0
-187 -291 0
179 -187 -466 0
-180 -187 466 0
-57 -94 188 -616 0
-188 616 0
57 -188 0
94 -188 0
-59 189 -190 -615 0
-189 615 0
59 -189 0
-189 190 0
185 190 -487 0
-190 487 0
-185 -190 0
7 191 -199 0
7 191 -198 0
7 191 -192 0
-7 -191 0
-191 192 198 199 0
192 195 -196 0
-45 192 193 -196 0
-192 196 0
-192 -193 -195 0
45 -192 -195 0
-40 193 909 0
40 193 194 0
-40 -193 -909 0
40 -193 -194 0
-20 194 -908 0
-194 908 0
20 -194 0
47 195 -625 0
195 -625 910 0
-195 625 0
-47 -195 -910 0
-168 196 197 0
168 -196 0
-196 -197 0
-193 197 625 -800 0
194 197 625 800 0
-197 -625 0
193 -197 -800 0
-194 -197 800 0
-14 -49 198 -912 0
-198 912 0
14 -198 0
49 -198 0
-16 -176 199 -911 0
-199 911 0
16 -199 0
176 -199 0
-55 200 -201 0
-55 200 -208 0
-55 200 -207 0
55 -200 0
-200 201 207 208 0
201 204 -205 0
-90 201 202 -205 0
-201 205 0
-201 -202 -204 0
90 -201 -204 0
-85 202 604 0
85 202 203 0
-85 -202 -604 0
85 -202 -203 0
-63 203 -603 0
-203 603 0
63 -203 0
92 204 -291 0
204 -291 605 0
-204 291 0
-92 -204 -605 0
-183 205 206 0
183 -205 0
-205 -206 0
-202 206 291 -466 0
203 206 291 466 0
-206 -291 0
202 -206 -466 0
-203 -206 466 0
-57 -94 207 -607 0
-207 607 0
57 -207 0
94 -207 0
-59 -190 208 -606 0
-208 606 0
59 -208 0
190 -208 0
191 209 -210 -265 0
-200 209 -210 -265 0
-209 265 0
-209 210 0
-191 200 -209 0
210 211 223 -241 -252 0
210 -211 -223 -241 -252 0
-210 252 0
-210 -211 223 0
-210 241 0
-210 211 -223 0
211 -212 214 0
-211 212 0
-211 -214 0
9 212 -213 0
12 212 -213 -857 0
-212 213 0
-9 -12 -212 0
-9 -212 857 0
41 172 213 0
41 52 213 0
-41 -213 0
-52 -172 -213 0
214 215 -217 0
214 221 222 0
214 -217 221 0
-214 217 -222 0
-214 -215 -221 0
-214 217 -221 0
215 -216 800 801 804 0
-215 216 0
-215 -804 0
-215 -800 0
-215 -801 0
216 802 803 0
-216 -802 0
-216 -803 0
217 218 -744 0
-21 217 -220 744 0
-217 -218 -744 0
21 -217 744 0
-217 220 744 0
-21 218 -219 0
21 -218 0
-218 219 0
219 -886 -888 0
35 219 886 0
219 -886 -892 0
-35 -219 886 0
-219 -886 888 892 0
220 -886 888 894 0
-220 886 0
-220 -894 0
-220 -888 0
215 221 625 0
-218 221 625 0
-221 -625 0
-215 218 -221 0
46 222 -625 0
-222 625 0
-46 -222 0
223 -228 291 0
91 223 224 -228 0
-223 228 0
-223 -224 -291 0
-91 -223 -291 0
224 225 -410 0
-68 224 -227 410 0
-224 -225 -410 0
68 -224 410 0
-224 227 410 0
-68 225 -226 0
68 -225 0
-225 226 0
226 -581 -583 0
64 226 581 0
226 -581 -587 0
-64 -226 581 0
-226 -581 583 587 0
227 -581 583 589 0
-227 581 0
-227 -589 0
-227 -583 0
224 228 230 -234 0
228 -229 230 -234 0
-228 234 0
-228 -230 0
-224 -228 229 0
229 466 467 0
-229 -466 0
-229 -467 0
-224 230 231 0
225 230 -232 0
-224 225 230 0
230 231 -232 0
224 -230 232 0
-225 -230 -231 0
231 468 469 470 0
-231 -468 0
-231 -470 0
-231 -469 0
232 -233 291 0
-232 -291 0
-232 233 0
-231 233 466 467 0
231 -233 0
-233 -467 0
-233 -466 0
234 -235 -552 0
-234 552 0
-234 235 0
235 -237 239 0
235 236 -237 -523 0
-235 237 0
-235 -239 523 0
-235 -236 -239 0
-4 236 0
236 -532 538 0
236 532 539 0
4 -236 -532 -538 0
4 -236 532 -539 0
86 237 238 0
86 98 237 0
86 237 487 0
-86 -237 0
-98 -237 -238 -487 0
-97 238 -494 0
-238 494 0
97 -238 0
-3 -4 239 0
-3 239 -240 0
3 -239 0
4 -239 240 0
-4 240 0
240 532 -539 0
240 -532 -538 0
4 -240 -532 538 0
4 -240 532 539 0
241 242 245 248 -249 0
241 -242 -245 248 -249 0
-241 -248 0
-241 242 -245 0
-241 249 0
-241 -242 245 0
-68 -235 242 -243 -244 0
-242 244 0
68 -242 0
235 -242 0
-242 243 0
243 -581 583 0
-243 581 0
-243 -583 0
244 291 -552 0
91 244 -552 0
-244 552 0
-91 -244 -291 0
-21 -212 245 -246 247 0
-245 246 0
-245 -247 0
21 -245 0
212 -245 0
246 -886 888 0
-246 886 0
-246 -888 0
-46 247 -625 0
-247 625 0
46 -247 0
-10 -11 -12 248 0
10 -248 0
11 -248 0
12 -248 0
22 29 249 -250 0
-28 29 249 -250 0
-249 250 0
-29 -249 0
-22 28 -249 0
35 -213 247 250 -251 0
213 -250 0
-247 -250 0
-35 -250 0
-250 251 0
251 -628 -629 0
251 -627 630 0
251 -627 -629 0
251 -628 630 0
-251 629 -630 0
-251 627 628 0
252 -253 -259 0
252 253 259 0
-252 253 -259 0
-252 -253 259 0
-234 253 254 291 0
-234 253 254 -258 0
234 -253 0
-253 -254 0
-253 258 -291 0
233 254 257 0
254 255 257 0
-233 254 255 291 0
-233 -254 -255 0
233 -254 -257 0
-254 -257 -291 0
-68 255 -581 0
64 -68 255 256 0
68 -255 0
-255 -256 581 0
-64 -255 581 0
256 302 618 0
-256 -302 0
-256 -618 0
257 410 -619 0
-255 257 -410 0
255 -257 -410 0
-257 410 619 0
91 -257 258 0
-91 -258 0
257 -258 0
-212 259 260 625 0
-212 259 260 -264 0
212 -259 0
-259 -260 0
-259 264 -625 0
215 260 263 0
260 261 263 0
-215 260 261 625 0
-215 -260 -261 0
215 -260 -263 0
-260 -263 -625 0
-21 261 -886 0
-21 35 261 262 0
21 -261 0
-261 -262 886 0
-35 -261 886 0
262 636 923 0
-262 -636 0
-262 -923 0
263 744 -924 0
-261 263 -744 0
261 -263 -744 0
-263 744 924 0
46 -263 264 0
-46 -264 0
263 -264 0
265 -266 -276 0
265 266 276 0
-265 266 -276 0
-265 -266 276 0
7 266 267 275 0
7 169 266 267 0
-7 -266 0
-266 -267 0
-169 -266 -275 0
267 269 821 0
16 267 268 269 0
-267 -269 0
-267 -268 -821 0
-16 -267 -821 0
-14 268 828 -916 0
14 -268 0
-268 916 0
-268 -828 0
41 269 270 274 0
41 269 270 -273 0
-41 -269 0
-269 -270 0
-269 273 -274 0
270 -272 625 -800 0
270 271 625 800 0
-270 -625 0
-270 272 -800 0
-270 -271 800 0
-20 271 -629 0
-271 629 0
20 -271 0
-40 272 913 0
40 271 272 0
-40 -272 -913 0
40 -271 -272 0
-45 272 273 0
45 -273 0
-272 -273 0
47 274 -625 0
274 -625 914 0
-274 625 0
-47 -274 -914 0
-170 268 275 0
268 275 915 0
-268 -275 0
170 -275 -915 0
-55 184 276 277 0
-55 276 277 286 0
55 -276 0
-276 -277 0
-184 -276 -286 0
277 -279 280 0
59 277 278 280 0
-277 -280 0
-277 -278 279 0
-59 -277 279 0
-57 278 494 -611 0
57 -278 0
-278 611 0
-278 -494 0
59 279 487 0
279 487 610 0
186 279 487 0
-279 -487 0
-59 -186 -279 -610 0
86 280 281 285 0
86 280 281 -284 0
-86 -280 0
-280 -281 0
-280 284 -285 0
281 -283 291 -466 0
281 282 291 466 0
-281 -291 0
-281 283 -466 0
-281 -282 466 0
-63 282 -295 0
-282 295 0
63 -282 0
-85 283 608 0
85 282 283 0
-85 -283 -608 0
85 -282 -283 0
-90 283 284 0
90 -284 0
-283 -284 0
92 285 -291 0
285 -291 609 0
-285 291 0
-92 -285 -609 0
-185 278 286 0
278 286 610 0
-278 -286 0
185 -286 -610 0
-76 287 -288 0
-80 287 -288 0
-82 287 -288 0
-287 288 0
76 80 82 -287 0
64 69 -237 288 -289 0
-64 -288 0
-288 289 0
237 -288 0
-69 -288 0
-244 289 290 -295 0
-244 289 290 296 0
244 -289 0
-289 -290 0
-289 295 -296 0
290 293 294 0
-290 -293 0
-290 -294 0
1 2 0
-1 -2 0
930 0

